feasible solution found by trivial heuristic after 0.0 seconds, objective value 0.000000e+00
presolving:
   (0.0s) running MILP presolver
   (0.0s) MILP presolver found nothing
(round 1, exhaustive) 0 del vars, 0 del conss, 0 add conss, 0 chg bounds, 0 chg sides, 0 chg coeffs, 2005 upgd conss, 0 impls, 2000 clqs
   (0.1s) probing: 51/10000 (0.5%) - 0 fixings, 0 aggregations, 0 implications, 0 bound changes
   (0.1s) probing aborted: 50/50 successive totally useless probings
   (0.1s) symmetry computation started: requiring (bin +, int -, cont +), (fixed: bin -, int +, cont -)
   (0.1s) symmetry computation finished: 159 generators found (max: 1500, log10 of symmetry group size: 48.7)
(round 2, exhaustive) 0 del vars, 0 del conss, 154 add conss, 0 chg bounds, 0 chg sides, 0 chg coeffs, 2005 upgd conss, 0 impls, 2000 clqs
presolving (3 rounds: 3 fast, 3 medium, 3 exhaustive):
 0 deleted vars, 0 deleted constraints, 154 added constraints, 0 tightened bounds, 0 added holes, 0 changed sides, 0 changed coefficients
 0 implications, 2000 cliques
presolved problem has 10000 variables (10000 bin, 0 int, 0 impl, 0 cont) and 2159 constraints
      5 constraints of type <knapsack>
   2000 constraints of type <setppc>
    154 constraints of type <orbitope>
transformed objective value is always integral (scale: 1)
Presolving Time: 0.17
transformed 1/1 original solutions to the transformed problem space

 time | node  | left  |LP iter|LP it/n|mem/heur|mdpt |vars |cons |rows |cuts |sepa|confs|strbr|  dualbound   | primalbound  |  gap   | compl. 
p 0.3s|     1 |     0 |     0 |     - |  clique|   0 |  10k|2159 |2005 |   0 |  0 |   0 |   0 | 6.582650e+05 | 6.526300e+04 | 908.63%| unknown
  0.9s|     1 |     0 |  3563 |     - |   158M |   0 |  10k|2159 |2005 |   0 |  0 |   0 |   0 | 1.023791e+05 | 6.526300e+04 |  56.87%| unknown
r 0.9s|     1 |     0 |  3563 |     - |rounding|   0 |  10k|2159 |2005 |   0 |  0 |   0 |   0 | 1.023791e+05 | 1.018170e+05 |   0.55%| unknown
r 0.9s|     1 |     0 |  3563 |     - |shifting|   0 |  10k|2159 |2005 |   0 |  0 |   0 |   0 | 1.023791e+05 | 1.018930e+05 |   0.48%| unknown
i 0.9s|     1 |     0 |  3563 |     - |  oneopt|   0 |  10k|2159 |2005 |   0 |  0 |   0 |   0 | 1.023791e+05 | 1.023670e+05 |   0.01%| unknown
  1.1s|     1 |     0 |  3571 |     - |   162M |   0 |  10k|2159 |2010 |   5 |  1 |   0 |   0 | 1.023791e+05 | 1.023670e+05 |   0.01%| unknown
  1.1s|     1 |     0 |  3571 |     - |   163M |   0 |  10k|2159 |1376 |   5 |  1 |   0 |   0 | 1.023791e+05 | 1.023670e+05 |   0.01%| unknown
  1.2s|     1 |     0 |  3607 |     - |   163M |   0 |  10k|1525 |1381 |  10 |  2 |   0 |   0 | 1.023791e+05 | 1.023670e+05 |   0.01%| unknown
  1.3s|     1 |     0 |  3667 |     - |   164M |   0 |  10k|1525 |1386 |  15 |  3 |   0 |   0 | 1.023791e+05 | 1.023670e+05 |   0.01%| unknown
  1.4s|     1 |     0 |  3765 |     - |   165M |   0 |  10k|1525 |1391 |  20 |  4 |   0 |   0 | 1.023791e+05 | 1.023670e+05 |   0.01%| unknown
  1.5s|     1 |     0 |  3791 |     - |   166M |   0 |  10k|1525 |1396 |  25 |  5 |   0 |   0 | 1.023791e+05 | 1.023670e+05 |   0.01%| unknown
  1.6s|     1 |     0 |  3878 |     - |   166M |   0 |  10k|1525 |1401 |  30 |  6 |   0 |   0 | 1.023791e+05 | 1.023670e+05 |   0.01%| unknown
  1.7s|     1 |     0 |  3960 |     - |   167M |   0 |  10k|1525 |1405 |  34 |  7 |   0 |   0 | 1.023791e+05 | 1.023670e+05 |   0.01%| unknown
  1.8s|     1 |     0 |  4193 |     - |   167M |   0 |  10k|1525 |1409 |  38 |  8 |   0 |   0 | 1.023791e+05 | 1.023670e+05 |   0.01%| unknown
  1.9s|     1 |     0 |  4216 |     - |   167M |   0 |  10k|1525 |1411 |  40 |  9 |   0 |   0 | 1.023791e+05 | 1.023670e+05 |   0.01%| unknown
 time | node  | left  |LP iter|LP it/n|mem/heur|mdpt |vars |cons |rows |cuts |sepa|confs|strbr|  dualbound   | primalbound  |  gap   | compl. 
  2.0s|     1 |     0 |  4238 |     - |   168M |   0 |  10k|1525 |1415 |  44 | 10 |   0 |   0 | 1.023791e+05 | 1.023670e+05 |   0.01%| unknown
  2.1s|     1 |     0 |  4268 |     - |   169M |   0 |  10k|1525 |1417 |  47 | 11 |   0 |   0 | 1.023791e+05 | 1.023670e+05 |   0.01%| unknown
  2.2s|     1 |     0 |  4280 |     - |   170M |   0 |  10k|1525 |1421 |  51 | 12 |   0 |   0 | 1.023791e+05 | 1.023670e+05 |   0.01%| unknown
(run 1, node 1) restarting after 3170 global fixings of integer variables

(restart) converted 25 cuts from the global cut pool into linear constraints

presolving:
(round 1, fast)       3170 del vars, 0 del conss, 0 add conss, 0 chg bounds, 0 chg sides, 0 chg coeffs, 0 upgd conss, 0 impls, 1366 clqs
(round 2, medium)     3170 del vars, 41 del conss, 0 add conss, 0 chg bounds, 0 chg sides, 0 chg coeffs, 0 upgd conss, 0 impls, 1366 clqs
(round 3, exhaustive) 3170 del vars, 43 del conss, 0 add conss, 0 chg bounds, 2 chg sides, 0 chg coeffs, 0 upgd conss, 0 impls, 1366 clqs
(round 4, exhaustive) 3170 del vars, 43 del conss, 0 add conss, 0 chg bounds, 2 chg sides, 0 chg coeffs, 23 upgd conss, 0 impls, 1366 clqs
presolving (5 rounds: 5 fast, 4 medium, 3 exhaustive):
 3170 deleted vars, 43 deleted constraints, 0 added constraints, 0 tightened bounds, 0 added holes, 2 changed sides, 0 changed coefficients
 0 implications, 1366 cliques
presolved problem has 6830 variables (6830 bin, 0 int, 0 impl, 0 cont) and 1507 constraints
     28 constraints of type <knapsack>
   1366 constraints of type <setppc>
    113 constraints of type <orbitope>
transformed objective value is always integral (scale: 1)
Presolving Time: 0.31
transformed 100/100 original solutions to the transformed problem space

 time | node  | left  |LP iter|LP it/n|mem/heur|mdpt |vars |cons |rows |cuts |sepa|confs|strbr|  dualbound   | primalbound  |  gap   | compl. 
  4.5s|     1 |     0 |  9626 |     - |   206M |   0 |6830 |1507 |1394 |   0 |  0 |   0 |   0 | 1.023791e+05 | 1.023670e+05 |   0.01%| unknown
  4.7s|     1 |     0 |  9730 |     - |   206M |   0 |6830 |1507 |1398 |   4 |  1 |   0 |   0 | 1.023791e+05 | 1.023670e+05 |   0.01%| unknown
  4.8s|     1 |     0 |  9753 |     - |   207M |   0 |6830 |1507 |1403 |   9 |  2 |   0 |   0 | 1.023791e+05 | 1.023670e+05 |   0.01%| unknown
  4.8s|     1 |     0 |  9761 |     - |   207M |   0 |6830 |1507 |1408 |  14 |  3 |   0 |   0 | 1.023791e+05 | 1.023670e+05 |   0.01%| unknown
  4.9s|     1 |     0 |  9866 |     - |   208M |   0 |6830 |1507 |1412 |  18 |  4 |   0 |   0 | 1.023791e+05 | 1.023670e+05 |   0.01%| unknown
  5.0s|     1 |     0 |  9933 |     - |   208M |   0 |6830 |1507 |1417 |  23 |  5 |   0 |   0 | 1.023791e+05 | 1.023670e+05 |   0.01%| unknown
  5.1s|     1 |     0 |  9970 |     - |   209M |   0 |6830 |1507 |1422 |  28 |  6 |   0 |   0 | 1.023791e+05 | 1.023670e+05 |   0.01%| unknown
  5.2s|     1 |     0 | 10091 |     - |   209M |   0 |6830 |1507 |1427 |  33 |  7 |   0 |   0 | 1.023791e+05 | 1.023670e+05 |   0.01%| unknown
  5.3s|     1 |     0 | 10098 |     - |   209M |   0 |6830 |1507 |1432 |  38 |  8 |   0 |   0 | 1.023791e+05 | 1.023670e+05 |   0.01%| unknown
  5.4s|     1 |     0 | 10117 |     - |   210M |   0 |6830 |1507 |1436 |  42 |  9 |   0 |   0 | 1.023791e+05 | 1.023670e+05 |   0.01%| unknown
  5.5s|     1 |     0 | 10127 |     - |   210M |   0 |6830 |1507 |1417 |  46 | 10 |   0 |   0 | 1.023791e+05 | 1.023670e+05 |   0.01%| unknown
  5.6s|     1 |     0 | 10192 |     - |   211M |   0 |6830 |1507 |1422 |  51 | 11 |   0 |   0 | 1.023791e+05 | 1.023670e+05 |   0.01%| unknown
  5.6s|     1 |     0 | 10200 |     - |   212M |   0 |6830 |1507 |1426 |  55 | 12 |   0 |   0 | 1.023791e+05 | 1.023670e+05 |   0.01%| unknown
  5.7s|     1 |     0 | 10206 |     - |   212M |   0 |6830 |1507 |1430 |  59 | 13 |   0 |   0 | 1.023791e+05 | 1.023670e+05 |   0.01%| unknown
  7.6s|     1 |     2 | 12193 |     - |   213M |   0 |6830 |1507 |1430 |  59 | 13 |   0 |  23 | 1.023791e+05 | 1.023670e+05 |   0.01%| unknown
 time | node  | left  |LP iter|LP it/n|mem/heur|mdpt |vars |cons |rows |cuts |sepa|confs|strbr|  dualbound   | primalbound  |  gap   | compl. 
  9.7s|   100 |   101 | 14345 |  54.8 |   217M |  62 |6830 |1510 |1414 | 107 |  1 |   3 |  23 | 1.023791e+05 | 1.023670e+05 |   0.01%| unknown
d11.1s|   119 |   120 | 17768 |  74.8 |conflict|  81 |6830 |1510 |1414 |   0 |  1 |   3 |  23 | 1.023791e+05 | 1.023710e+05 |   0.01%| unknown
d11.2s|   119 |   120 | 18035 |  77.1 |conflict|  81 |6830 |1510 |1414 |   0 |  1 |   3 |  23 | 1.023791e+05 | 1.023730e+05 |   0.01%| unknown
i11.4s|   120 |   119 | 18134 |  77.3 |  oneopt|  81 |6830 |1510 |1406 | 107 |  0 |   3 |  23 | 1.023791e+05 | 1.023740e+05 |   0.01%| unknown
 13.4s|   200 |   201 | 22685 |  69.1 |   220M |  81 |6830 |1510 |1411 | 125 |  1 |   3 |  23 | 1.023791e+05 | 1.023740e+05 |   0.01%| unknown
 14.3s|   300 |   299 | 23294 |  48.1 |   223M |  81 |6830 |1513 |1412 | 146 |  1 |   6 |  23 | 1.023791e+05 | 1.023740e+05 |   0.01%| unknown
 17.0s|   400 |   399 | 33969 |  62.8 |   224M | 133 |6830 |1513 |1414 | 146 |  1 |   6 |  23 | 1.023791e+05 | 1.023740e+05 |   0.01%| unknown
 18.7s|   500 |   499 | 37800 |  57.9 |   225M | 133 |6830 |1513 |1414 | 146 |  1 |   6 |  23 | 1.023791e+05 | 1.023740e+05 |   0.01%| unknown
 21.3s|   600 |   599 | 43922 |  58.4 |   225M | 139 |6830 |1513 |1414 | 146 |  1 |   6 |  23 | 1.023791e+05 | 1.023740e+05 |   0.01%| unknown
 23.7s|   700 |   699 | 47554 |  55.3 |   226M | 139 |6830 |1513 |1404 | 155 |  1 |   6 |  23 | 1.023791e+05 | 1.023740e+05 |   0.01%| unknown
Restart triggered after 50 consecutive estimations that the remaining tree will be large
d26.5s|   773 |     0 | 51594 |  55.3 |conflict| 139 |6830 |1513 |1409 |   0 |  1 |   6 |  23 | 1.023791e+05 | 1.023790e+05 |   0.00%| 100.00%

SCIP Status        : problem is solved [optimal solution found]
Solving Time (sec) : 26.48
Solving Nodes      : 773 (total of 774 nodes in 2 runs)
Primal Bound       : +1.02379000000000e+05 (576 solutions)
Dual Bound         : +1.02379000000000e+05
Gap                : 0.00 %
Solve Status: optimal
Solve Time: 26.48 seconds
